proyfinal/src/viki/013/experimentInOfficeAgust.take6.output/f4197b07-5ca5-4e97-ba49-220190d332b0.als.out
Reading from standard input... Use '--help' for help.
============================[ Problem Statistics ]=============================
|                                                                             |
|  Number of variables:         87638                                         |
|  Number of clauses:          161767                                         |
|  Parse time:                   0.04 s                                       |
|                                                                             |
============================[ Search Statistics ]==============================
| Conflicts |          ORIGINAL         |          LEARNT          | Progress |
|           |    Vars  Clauses Literals |    Limit  Clauses Lit/Cl |          |
===============================================================================
|       100 |   62680   106306   265607 |    38978      100     25 | 28.479 % |
|       250 |   62680   106306   265607 |    42876      250     27 | 28.479 % |
|       475 |   62680   106306   265607 |    47164      475     29 | 28.479 % |
|       812 |   62656   106206   265378 |    51880      810     39 | 28.506 % |
|      1318 |   62656   106206   265378 |    57068     1316     89 | 28.506 % |
|      2077 |   62656   106206   265378 |    62775     2075     84 | 28.506 % |
|      3216 |   62656   106206   265378 |    69053     3214     91 | 28.506 % |
|      4924 |   62655   106162   265288 |    75958     4919     97 | 28.507 % |
|      7486 |   62655   106162   265288 |    83554     7481     91 | 28.507 % |
|     11330 |   52538    76834   193333 |    91910    11274     80 | 40.051 % |
|     17096 |   52015    74740   188408 |   101101    14938     75 | 40.648 % |
===============================================================================
restarts              : 78
conflicts             : 22172          (6708 /sec)
decisions             : 64116          (0.00 % random) (19397 /sec)
propagations          : 33022716       (9990288 /sec)
conflict literals     : 1534942        (49.05 % deleted)
Memory used           : 40.99 MB
CPU time              : 3.30548 s

INDETERMINATE
